
Gurobi 5.6.3 (win64) logging started 10/07/14 10:26:24


Gurobi 5.6.3 (win64) logging started 10/07/14 10:26:41


Gurobi 5.6.3 (win64) logging started 10/07/14 10:27:08


Gurobi 5.6.3 (win64) logging started 10/07/14 10:27:50


Gurobi 5.6.3 (win64) logging started 10/07/14 14:57:33


Gurobi 5.6.3 (win64) logging started 10/07/14 14:58:25


Gurobi 5.6.3 (win64) logging started 10/07/14 15:00:05


Gurobi 5.6.3 (win64) logging started 10/07/14 16:46:08


Gurobi 5.6.3 (win64) logging started 10/07/14 16:51:24


Gurobi 5.6.3 (win64) logging started 10/07/14 16:52:26

